
Gurobi 13.0.1 (linux64) logging started Fri Mar 27 03:40:26 2026

Set parameter LogFile to value "logs_sparse/100B_3F_robust_gamma_0d75_theta_0d05199999999999999_2026-03-27_03h39m59s.log"
Set parameter MIPGap to value 0.005
Set parameter OptimalityTol to value 0.005
Gurobi Optimizer version 13.0.1 build v13.0.1rc0 (linux64 - "Linux Mint 22")

CPU model: 12th Gen Intel(R) Core(TM) i7-12700, instruction set [SSE2|AVX|AVX2]
Thread count: 20 physical cores, 20 logical processors, using up to 20 threads

Non-default parameters:
TimeLimit  3600
SoftMemLimit  12
MIPGap  0.005
OptimalityTol  0.005

Optimize a model with 60721 rows, 1531121 columns and 4635098 nonzeros (Max)
Model fingerprint: 0x4b9ad498
Model has 1485111 linear objective coefficients
Variable types: 16121 continuous, 1515000 integer (1515000 binary)
Coefficient statistics:
  Matrix range     [3e-05, 1e+05]
  Objective range  [1e+00, 3e+03]
  Bounds range     [1e+00, 1e+05]
  RHS range        [1e+00, 1e+05]

Presolve removed 36714 rows and 1241081 columns
Presolve time: 0.68s
Presolved: 24007 rows, 290040 columns, 921754 nonzeros
Variable types: 6446 continuous, 283594 integer (283594 binary)
Found heuristic solution: objective -4.95506e+08
Performing another presolve...
Presolve added 0 rows and 10 columns
Presolve removed 18 rows and 0 columns
Presolve time: 1.20s
Deterministic concurrent LP optimizer: primal simplex, dual simplex, and barrier
Showing barrier log only...

Root barrier log...

Ordering time: 0.59s

Barrier statistics:
 AA' NZ     : 4.530e+05
 Factor NZ  : 4.046e+06 (roughly 160 MB of memory)
 Factor Ops : 1.382e+09 (less than 1 second per iteration)
 Threads    : 18

                  Objective                Residual
Iter       Primal          Dual         Primal    Dual     Compl     Time
   0  -2.18161674e+12  1.35026766e+09  8.62e+07 1.02e+03  2.21e+07     4s
   1  -2.39675861e+11  4.83732188e+09  9.49e+06 2.73e-11  2.50e+06     4s
   2  -9.61907854e+09  2.59158800e+09  3.80e+05 4.32e-11  1.04e+05     4s
   3  -8.02427233e+08  1.81002568e+09  3.33e+04 5.14e-11  1.18e+04     4s
   4   1.01840030e+08  1.18562521e+09  5.15e+03 3.50e-11  2.83e+03     4s
   5   2.01120248e+08  8.57152844e+08  2.15e+03 4.43e-11  1.47e+03     4s
   6   2.51322420e+08  5.31560436e+08  6.09e+02 3.66e-11  5.61e+02     4s
   7   2.62511745e+08  3.70212257e+08  2.83e+02 1.32e-10  2.19e+02     5s
   8   2.66982836e+08  3.30962355e+08  1.59e+02 1.20e-10  1.28e+02     5s
   9   2.70796990e+08  2.99673750e+08  5.74e+01 1.17e-10  5.60e+01     5s
  10   2.71656072e+08  2.84818637e+08  3.71e+01 1.31e-09  2.66e+01     5s
  11   2.72593216e+08  2.78366369e+08  1.55e+01 6.23e-10  1.14e+01     5s
  12   2.73072813e+08  2.75812500e+08  4.67e+00 5.93e-10  5.01e+00     5s
  13   2.73171372e+08  2.74314815e+08  2.68e+00 5.32e-10  2.05e+00     5s
  14   2.73227616e+08  2.73951510e+08  1.68e+00 6.91e-10  1.26e+00     5s
  15   2.73328402e+08  2.73730195e+08  3.60e-01 7.52e-10  6.82e-01     5s
  16   2.73354077e+08  2.73584680e+08  1.70e-01 7.53e-10  3.90e-01     5s
  17   2.73381900e+08  2.73507170e+08  6.18e-02 5.41e-10  2.12e-01     5s
  18   2.73387831e+08  2.73469314e+08  4.44e-02 7.04e-10  1.38e-01     5s
  19   2.73394194e+08  2.73437405e+08  2.68e-02 6.23e-10  7.30e-02     5s
  20   2.73401302e+08  2.73424262e+08  8.82e-03 6.33e-10  3.88e-02     5s
  21   2.73402433e+08  2.73419270e+08  6.10e-03 7.93e-10  2.84e-02     5s
  22   2.73403384e+08  2.73415564e+08  3.99e-03 7.08e-10  2.06e-02     6s
  23   2.73404055e+08  2.73412339e+08  2.56e-03 7.82e-10  1.40e-02     6s
  24   2.73404386e+08  2.73410332e+08  1.96e-03 6.88e-10  1.00e-02     6s
  25   2.73404524e+08  2.73408968e+08  1.69e-03 6.98e-10  7.50e-03     6s
  26   2.73405099e+08  2.73407750e+08  6.91e-04 5.61e-10  4.48e-03     6s
  27   2.73405231e+08  2.73407165e+08  4.65e-04 6.77e-10  3.27e-03     6s
  28   2.73405354e+08  2.73406753e+08  2.79e-04 8.58e-10  2.36e-03     6s
  29   2.73405387e+08  2.73406545e+08  2.30e-04 7.92e-10  1.95e-03     6s
  30   2.73405416e+08  2.73406279e+08  1.88e-04 8.63e-10  1.46e-03     6s
  31   2.73405448e+08  2.73406114e+08  1.38e-04 7.41e-10  1.12e-03     6s
  32   2.73405489e+08  2.73405863e+08  7.64e-05 7.27e-10  6.32e-04     6s
  33   2.73405517e+08  2.73405777e+08  4.40e-05 8.50e-10  4.39e-04     6s
  34   2.73405527e+08  2.73405737e+08  3.04e-05 8.42e-10  3.54e-04     6s
  35   2.73405534e+08  2.73405685e+08  2.17e-05 8.31e-10  2.55e-04     6s
  36   2.73405538e+08  2.73405654e+08  1.81e-05 9.90e-10  1.96e-04     6s
  37   2.73405548e+08  2.73405619e+08  7.24e-06 8.50e-10  1.20e-04     7s
  38   2.73405552e+08  2.73405578e+08  2.37e-06 5.92e-10  4.25e-05     7s
  39   2.73405553e+08  2.73405568e+08  1.97e-06 6.07e-10  2.48e-05     7s
  40   2.73405554e+08  2.73405567e+08  1.44e-06 8.25e-10  2.19e-05     7s
  41   2.73405555e+08  2.73405558e+08  9.68e-07 4.51e-10  5.72e-06     7s
  42   2.73405556e+08  2.73405557e+08  2.04e-07 6.97e-10  2.94e-06     7s

Barrier solved model in 42 iterations and 6.83 seconds (9.15 work units)
Optimal objective 2.73405556e+08


Root crossover log...

    8082 DPushes remaining with DInf 0.0000000e+00                 7s
       0 DPushes remaining with DInf 0.0000000e+00                 7s

    6308 PPushes remaining with PInf 3.2274591e-01                 7s
       0 PPushes remaining with PInf 0.0000000e+00                 7s

  Push phase complete: Pinf 0.0000000e+00, Dinf 3.6965460e+04      7s


Root simplex log...

Iteration    Objective       Primal Inf.    Dual Inf.      Time
   13866    2.7340556e+08   0.000000e+00   3.696538e+04      7s
   14406    2.7340556e+08   0.000000e+00   0.000000e+00      7s
Crossover time: 0.56 seconds (0.50 work units)
Concurrent spin time: 1.42s (can be avoided by choosing Method=3)

Solved with barrier

Root relaxation: objective 2.734056e+08, 14406 iterations, 5.84 seconds (5.00 work units)
Total elapsed time = 8.83s (DegenMoves)

    Nodes    |    Current Node    |     Objective Bounds      |     Work
 Expl Unexpl |  Obj  Depth IntInf | Incumbent    BestBd   Gap | It/Node Time

     0     0 2.7341e+08    0 7348 -4.955e+08 2.7341e+08   155%     -    9s
H    0     0                    -2.43988e+08 2.7341e+08   212%     -    9s
H    0     0                    -2.35169e+08 2.7341e+08   216%     -    9s
H    0     0                    -1.73146e+08 2.7341e+08   258%     -    9s
H    0     0                    -1.69876e+08 2.7341e+08   261%     -   10s
H    0     0                    -1.68382e+08 2.7341e+08   262%     -   10s
H    0     0                    -1.67313e+08 2.7341e+08   263%     -   10s
H    0     0                    -1.67313e+08 2.7341e+08   263%     -   10s
H    0     0                    8.240514e+07 2.7341e+08   232%     -   12s
H    0     0                    1.731543e+08 2.7341e+08  57.9%     -   12s
H    0     0                    1.847184e+08 2.7341e+08  48.0%     -   14s
     0     0 2.7341e+08    0 7726 1.8472e+08 2.7341e+08  48.0%     -  369s
H    0     0                    1.966991e+08 2.7341e+08  39.0%     -  372s
H    0     0                    1.966996e+08 2.7341e+08  39.0%     -  373s
H    0     0                    1.966998e+08 2.7341e+08  39.0%     -  373s
H    0     0                    1.970914e+08 2.7341e+08  38.7%     -  374s
H    0     0                    1.971004e+08 2.7341e+08  38.7%     -  380s
H    0     0                    2.068958e+08 2.7341e+08  32.1%     -  418s
H    0     0                    2.092069e+08 2.7341e+08  30.7%     -  495s
H    0     0                    2.092074e+08 2.7341e+08  30.7%     -  758s
     0     0 2.7341e+08    0 7601 2.0921e+08 2.7341e+08  30.7%     -  832s
     0     0 2.7340e+08    0 7921 2.0921e+08 2.7340e+08  30.7%     - 1749s
H    0     0                    2.511027e+08 2.7340e+08  8.88%     - 1754s
H    0     0                    2.529061e+08 2.7340e+08  8.10%     - 1755s
H    0     0                    2.529069e+08 2.7340e+08  8.10%     - 1763s
H    0     0                    2.537615e+08 2.7340e+08  7.74%     - 1787s
H    0     0                    2.537691e+08 2.7340e+08  7.74%     - 1829s
H    0     0                    2.537933e+08 2.7340e+08  7.73%     - 1829s
H    0     0                    2.537942e+08 2.7340e+08  7.73%     - 1871s
     0     0 2.7340e+08    0 7772 2.5379e+08 2.7340e+08  7.73%     - 1985s
     0     0 2.7340e+08    0 7927 2.5379e+08 2.7340e+08  7.73%     - 2133s
     0     0 2.7340e+08    0 8016 2.5379e+08 2.7340e+08  7.73%     - 2167s
     0     0 2.7340e+08    0 7914 2.5379e+08 2.7340e+08  7.73%     - 2249s
     0     0 2.7340e+08    0 7868 2.5379e+08 2.7340e+08  7.73%     - 2264s
     0     0 2.7340e+08    0 8141 2.5379e+08 2.7340e+08  7.73%     - 2412s
     0     0 2.7340e+08    0 8141 2.5379e+08 2.7340e+08  7.73%     - 2414s
     0     0 2.7340e+08    0 8139 2.5379e+08 2.7340e+08  7.73%     - 2414s
     0     2 2.7340e+08    0 8139 2.5379e+08 2.7340e+08  7.73%     - 2600s
     1     3 2.7340e+08    1 6975 2.5379e+08 2.7340e+08  7.73% 90211 2715s
     2     4 2.7340e+08    1 8044 2.5379e+08 2.7340e+08  7.73% 237128 3177s
     3     6 2.7340e+08    2 8068 2.5379e+08 2.7340e+08  7.73% 164027 3453s
     5     9 2.7340e+08    3 6477 2.5379e+08 2.7340e+08  7.73% 151465 3600s
H    7     9                    2.537966e+08 2.7340e+08  7.73% 110328 3600s

Cutting planes:
  MIR: 24
  Flow cover: 88
  RLT: 2620
  Relax-and-lift: 114

Explored 8 nodes (1732749 simplex iterations) in 3600.16 seconds (6883.21 work units)
Thread count was 20 (of 20 available processors)

Solution count 10: 2.53797e+08 2.53794e+08 2.53793e+08 ... 2.09207e+08

Time limit reached
Warning: max constraint violation (3.9523e-06) exceeds tolerance
Best objective 2.537965693768e+08, best bound 2.734033618805e+08, gap 7.7254%
